m = 5;
n = 20;
l = [15, 43, 42, 16, 42];
s = [5, 4, 3, 5, 6, 3, 9, 5, 6, 1, 6, 4, 8, 3, 1, 4, 8, 6, 8, 8];
D = 
[|  0, 10,  5,  2, 11,  7, 20, 16,  6,  1, 18, 20, 15, 19, 17, 10, 18, 19,  6, 13, 10
 | 20,  0, 16, 10,  7, 16, 17,  9, 16, 11,  9, 15, 13,  9, 12, 13,  8, 14,  9,  6,  6
 | 19, 20,  0, 15, 11,  7, 18, 12, 16, 10, 19, 15, 11, 20, 18, 10, 15, 16,  7, 19, 12
 | 17, 16, 11,  0, 19,  8, 19, 20, 14, 18, 17, 18, 16, 20, 19, 14, 20, 20, 11, 20, 17
 | 13, 11, 12, 11,  0, 16, 20, 12, 17, 14,  9, 17, 18, 15, 11,  9, 15, 19, 19, 16, 14
 | 17, 13,  7,  9, 16,  0, 20, 13, 14, 12, 19, 19, 11, 13, 16, 11, 14, 20,  7, 12, 16
 | 10,  9, 13, 10, 11, 15,  0, 10,  9,  8, 10,  7,  7,  8,  5, 11,  6, 11,  6, 13,  9
 | 15,  8, 14, 15,  4, 20, 14,  0, 19, 15,  8, 14, 17, 16, 11, 12,  8, 20, 10, 12, 14
 | 11, 14, 14,  4, 19, 12, 15, 19,  0, 10, 18, 16, 16, 17, 15, 12, 13, 18, 13, 19, 11
 | 10, 19, 12,  8, 15,  9, 20, 18, 16,  0, 19, 20, 17, 19, 18, 12, 18, 18,  7, 14, 11
 | 17, 10, 12, 17, 15, 19, 14, 14, 19, 17,  0,  8, 13, 10,  9, 15, 14, 15, 12, 12, 14
 | 16,  9, 15, 12,  7, 18, 20, 10, 20, 14, 16,  0,  9, 13, 11, 10, 13,  9, 12,  8, 10
 | 19, 17, 15, 17, 12, 10, 17, 11, 16, 16, 17, 10,  0, 12, 18, 18, 17, 11,  7,  8, 15
 | 20, 12, 19, 11, 11, 15, 12, 18, 15, 19, 14, 12, 18,  0, 13, 19, 17, 14, 15, 13, 16
 | 14, 12, 11,  9, 18, 16, 18, 16, 20,  8, 16, 20, 15, 17,  0,  7,  9, 18, 12, 11, 18
 | 12, 13, 17,  8, 19, 12, 13, 19, 18,  9, 14, 19, 10, 13, 16,  0, 15, 16, 13, 15, 19
 | 13,  7, 13, 13,  9, 14, 12,  9, 14,  7, 12, 11, 14, 15, 10, 13,  0, 19,  9,  7,  9
 | 13, 12,  9, 15, 13, 14, 18, 13, 11, 10, 15, 14, 12, 20, 20, 10, 15,  0,  5,  6, 13
 | 16, 17, 19, 12, 18, 14, 16, 14, 18, 17, 12, 20, 13, 16, 19, 17, 15, 16,  0, 15, 10
 | 20, 13, 11, 10, 11, 14, 18,  9, 18, 15, 10, 16, 12, 20, 19, 11, 12, 19, 17,  0, 10
 | 17,  9, 16, 15, 14, 11, 14, 10, 12, 15,  9, 10,  8, 18, 12, 15, 16, 19, 12,  9,  0
 |]
;